//Number of items      		
163
//Bin Capacity      
1000
//Known Best Solution  		
68
//Weight of Item
     699         1
     694         1
     692         3
     684         1
     682         1
     680         1
     679         1
     674         1
     668         1
     667         1
     665         1
     663         1
     650         1
     649         1
     647         1
     646         1
     645         1
     644         1
     638         1
     634         1
     630         1
     627         2
     623         1
     614         1
     609         1
     606         1
     603         1
     599         1
     596         1
     592         1
     588         1
     587         1
     585         1
     579         1
     572         1
     571         1
     569         1
     564         1
     562         1
     557         2
     556         2
     555         1
     552         1
     548         1
     546         1
     545         1
     542         1
     537         1
     531         1
     528         1
     527         1
     525         1
     521         1
     520         1
     518         1
     516         1
     511         1
     506         2
     500         1
     498         1
     495         1
     487         1
     479         1
     478         1
     469         1
     460         1
     455         1
     450         1
     449         1
     447         1
     444         1
     443         1
     438         1
     435         1
     433         1
     426         1
     425         1
     423         1
     419         2
     414         1
     411         1
     404         1
     403         1
     396         1
     395         2
     393         1
     389         1
     386         1
     376         1
     362         1
     360         1
     358         1
     356         1
     350         1
     347         1
     336         1
     332         1
     319         1
     318         1
     315         1
     311         2
     310         3
     309         1
     308         1
     300         2
     280         1
     275         1
     274         1
     263         1
     259         1
     257         1
     251         1
     249         1
     237         1
     225         1
     217         2
     206         2
     203         1
     198         1
     195         1
     192         1
     190         1
     185         1
     184         1
     179         1
     175         1
     167         1
     163         1
     159         2
     154         1
     152         1
     149         1
     141         1
     140         1
     129         1
     127         1
     125         1
     122         2
     112         1
     111         1
     109         1
     107         1
     102         1
      89         1
      88         1
      87         1
      85         1
      77         1
      75         2
      68         1
      62         1
      55         1
      51         1
      48         1
      42         1
      41         1
      37         1
      36         1
      34         1
      28         1
      25         1
       6         1
       5         1